# Solution for model MIP
# Objective value = -1996
B0(11) 1
B1(11) 0
B2(11) 1
B3(11) 1
B4(11) 1
B5(11) 0
B6(11) 1
B7(11) 1
B8(11) 0
B9(11) 0
B10(11) 1
B11(11) 1
B12(11) 0
B13(11) 1
C14(431) 2.1993968976757883e-01
C15(431) 7.8006031023242117e-01
C16(30) -1996
C17(1) 0
C18(1) 0
C19(1) 0
C20(1) 0
C21(1) 0
C22(1) 0
C23(1) 0
C24(1) 0
C25(1) 0
C26(1) 0
C27(1) 0
C28(1) 0
C29(1) 0
C30(1) 0
C31(1) 0
C32(1) 0
C33(1) 0
C34(1) 0
C35(1) 0
C36(1) 0
C37(1) 0
C38(2) 1.1102230246251565e-16
C39(2) 1.1102230246251565e-16
C40(2) 1.1102230246251565e-16
C41(1) 0
C42(1) 0
C43(1) 0
C44(1) 0
C45(1) 0
C46(1) 0
C47(1) 0
C48(1) 0
C49(1) 0
C50(1) 0
C51(1) 0
C52(1) 0
C53(2) 0
C54(2) 0
C55(2) 0
C56(2) 0
C57(2) 0
C58(2) 0
C59(1) 0
C60(1) 0
C61(1) 0
C62(2) 1.3877787807814457e-17
C63(2) 3.4694469519536142e-17
C64(2) 3.4694469519536142e-17
C65(1) 0
C66(1) 0
C67(1) 0
C68(1) 0
C69(1) 0
C70(1) 0
C71(2) 0
C72(2) 0
C73(2) 0
C74(1) 0
C75(1) 0
C76(1) 0
C77(2) 0
C78(2) 0
C79(2) 0
C80(2) 0
C81(2) 0
C82(2) 0
C83(1) 0
C84(1) 0
C85(1) 0
C86(1) 0
C87(1) 0
C88(1) 0
C89(2) 1.1102230246251565e-16
C90(2) 0
C91(2) 1.1102230246251565e-16
C92(1) 0
C93(1) 0
C94(1) 0
C95(2) 0
C96(2) 1.1102230246251565e-16
C97(2) 0
C98(1) 0
C99(1) 0
C100(1) 0
C101(1) 0
C102(1) 0
C103(1) 0
C104(2) 0
C105(2) 0
C106(2) 1.1102230246251565e-16
C107(4) 0
C108(4) 0
C109(4) 0
C110(4) 0
C111(4) 0
C112(4) 0
C113(4) 0
C114(5) 0
C115(4) 0
C116(4) 0
C117(4) 0
C118(4) 0
C119(4) 0
C120(4) 0
C121(4) 0
C122(4) 0
C123(4) 0
C124(5) 0
C125(4) 0
C126(4) 0
C127(4) 0
C128(4) 0
C129(4) 0
C130(4) 0
C131(4) 0
C132(4) 0
C133(4) 0
C134(5) 0
C135(4) 0
C136(4) 0
C137(4) 0
C138(4) 0
C139(4) 0
C140(4) 0
C141(4) 0
C142(4) 0
C143(4) 0
C144(5) 0
C145(4) 0
C146(4) 0
C147(4) 0
C148(4) 0
C149(4) 0
C150(4) 0
C151(4) 0
C152(4) 0
C153(4) 0
C154(5) 1.5265566588595902e-16
C155(4) 0
C156(4) 0
C157(4) 0
C158(4) 0
C159(4) 0
C160(4) 0
C161(4) 0
C162(4) 0
C163(4) 0
C164(5) 0
C165(4) 0
C166(4) 0
C167(1) 1
C168(1) 1
C169(1) 1
C170(1) 1
C171(1) 1
C172(1) 1
C173(1) 1
C174(2) 1
C175(1) 1
C176(1) 1
C177(4) 0
C178(4) 0
C179(5) 0
C180(5) 0
C181(4) 0
C182(5) 0
C183(4) 0
C184(4) 0
C185(5) 0
C186(4) 0
C187(4) 0
C188(4) 0
C189(5) 0
C190(5) 0
C191(4) 0
C192(5) 0
C193(4) 0
C194(4) 0
C195(5) 0
C196(4) 0
C197(4) 0
C198(4) 0
C199(5) 0
C200(5) 0
C201(4) 0
C202(5) 0
C203(4) 0
C204(4) 0
C205(5) 0
C206(4) 0
C207(4) 0
C208(4) 0
C209(5) 0
C210(5) 0
C211(4) 0
C212(5) 0
C213(4) 0
C214(4) 0
C215(5) 0
C216(4) 0
C217(4) 0
C218(4) 0
C219(5) 0
C220(5) 6.9388939039072284e-18
C221(4) 0
C222(5) 4.1633363423443370e-17
C223(4) 0
C224(4) 0
C225(5) 0
C226(4) 0
C227(4) 0
C228(4) 0
C229(5) 0
C230(5) 0
C231(4) 0
C232(5) 0
C233(4) 0
C234(4) 0
C235(5) 0
C236(4) 0
C237(1) 1
C238(1) 1
C239(2) 1
C240(2) 1
C241(1) 1
C242(2) 1
C243(1) 1
C244(1) 1
C245(2) 1
C246(1) 1
C247(5) 0
C248(5) 0
C249(4) 0
C250(4) 0
C251(5) 0
C252(4) 0
C253(5) 0
C254(4) 0
C255(4) 0
C256(5) 2.3158558404290375e-16
C257(5) 0
C258(5) 0
C259(4) 0
C260(4) 0
C261(5) 0
C262(4) 0
C263(5) 0
C264(4) 0
C265(4) 0
C266(5) 0
C267(5) 0
C268(5) 0
C269(4) 0
C270(4) 0
C271(5) 0
C272(4) 0
C273(5) 0
C274(4) 0
C275(4) 0
C276(5) 0
C277(5) 0
C278(5) 0
C279(4) 0
C280(4) 0
C281(5) 0
C282(4) 0
C283(5) 0
C284(4) 0
C285(4) 0
C286(5) 0
C287(5) 0
C288(5) 0
C289(4) 0
C290(4) 0
C291(5) 0
C292(4) 0
C293(5) 0
C294(4) 0
C295(4) 0
C296(5) 0
C297(5) 0
C298(5) 0
C299(4) 0
C300(4) 0
C301(5) 1.1102230246251565e-16
C302(4) 0
C303(5) 0
C304(4) 0
C305(4) 0
C306(5) 0
C307(2) 1
C308(2) 1
C309(1) 1
C310(1) 1
C311(2) 1
C312(1) 1
C313(2) 9.9999999999999989e-01
C314(1) 1
C315(1) 1
C316(2) 9.9999999999999989e-01
C317(4) 0
C318(4) 0
C319(4) 0
C320(4) 0
C321(4) 0
C322(4) 0
C323(4) 0
C324(4) 0
C325(4) 0
C326(4) 0
C327(4) 0
C328(4) 0
C329(4) 0
C330(4) 0
C331(4) 0
C332(4) 0
C333(4) 0
C334(4) 0
C335(4) 0
C336(4) 0
C337(4) 0
C338(4) 0
C339(4) 0
C340(4) 0
C341(4) 0
C342(4) 0
C343(4) 0
C344(4) 0
C345(4) 0
C346(4) 0
C347(6) 0
C348(6) 0
C349(6) 0
C350(6) 0
C351(6) 0
C352(6) 0
C353(6) 0
C354(6) 0
C355(6) 0
C356(6) 0
C357(6) 0
C358(6) 0
C359(6) 0
C360(6) 0
C361(6) 0
C362(6) 0
C363(6) 0
C364(6) 1.7763568394002505e-15
C365(6) 0
C366(6) 0
C367(6) 0
C368(6) 0
C369(6) 0
C370(6) 0
C371(6) 0
C372(6) 0
C373(6) 0
C374(6) 0
C375(6) 0
C376(6) 0
C377(2) 0
C378(2) 0
C379(2) 0
C380(2) 0
C381(2) 0
C382(2) 0
C383(2) 0
C384(2) 1.1000000000000002e+01
C385(2) 0
C386(2) 0
C387(4) 0
C388(4) 0
C389(4) 0
C390(4) 0
C391(4) 0
C392(4) 0
C393(4) 0
C394(4) 0
C395(4) 0
C396(4) 0
C397(4) 0
C398(4) 0
C399(4) 0
C400(4) 0
C401(4) 0
C402(4) 0
C403(4) 0
C404(4) 0
C405(4) 0
C406(4) 0
C407(4) 0
C408(4) 0
C409(4) 0
C410(4) 0
C411(4) 0
C412(4) 0
C413(4) 0
C414(4) 0
C415(4) 0
C416(4) 0
C417(6) 0
C418(6) 0
C419(6) 0
C420(6) 0
C421(6) 0
C422(6) 0
C423(6) 0
C424(6) 0
C425(6) 0
C426(6) 0
C427(6) 0
C428(6) 0
C429(6) 0
C430(6) 0
C431(6) 0
C432(6) 6.6613381477509392e-16
C433(6) 0
C434(6) 0
C435(6) 0
C436(6) 0
C437(6) 0
C438(6) 0
C439(6) 0
C440(6) 0
C441(6) 0
C442(6) 0
C443(6) 0
C444(6) 0
C445(6) 0
C446(6) 0
C447(2) 0
C448(2) 0
C449(2) 57
C450(2) 29
C451(2) 0
C452(2) 15
C453(2) 0
C454(2) 0
C455(2) 20
C456(2) 0
C457(4) 0
C458(4) 0
C459(4) 0
C460(4) 0
C461(4) 0
C462(4) 0
C463(4) 0
C464(4) 0
C465(4) 0
C466(4) 0
C467(4) 0
C468(4) 0
C469(4) 0
C470(4) 0
C471(4) 3.5527136788005009e-15
C472(4) 0
C473(4) 0
C474(4) 0
C475(4) 0
C476(4) 0
C477(4) 0
C478(4) 0
C479(4) 0
C480(4) 0
C481(4) 0
C482(4) 0
C483(4) 8.8817841970012523e-16
C484(4) 0
C485(4) 0
C486(4) 0
C487(6) 0
C488(6) 0
C489(6) 0
C490(6) 0
C491(6) 0
C492(6) 0
C493(6) 0
C494(6) 0
C495(6) 0
C496(6) 0
C497(6) 0
C498(6) 0
C499(6) 0
C500(6) 0
C501(6) 0
C502(6) 0
C503(6) 1.7763568394002505e-15
C504(6) 0
C505(6) 0
C506(6) 0
C507(6) 0
C508(6) 0
C509(6) 0
C510(6) 0
C511(6) 0
C512(6) 0
C513(6) 0
C514(6) 0
C515(6) 0
C516(6) 0
C517(2) 24
C518(2) 115
C519(2) 0
C520(2) 0
C521(2) 25
C522(2) 0
C523(2) 22
C524(2) 0
C525(2) 0
C526(2) 58
I527(1) 0
I528(1) 0
I529(1) 0
I530(1) 0
I531(1) 0
I532(1) 0
I533(1) 0
I534(1) 0
I535(1) 0
I536(1) 0
I537(1) 0
I538(1) 0
I539(1) 0
I540(1) 0
I541(1) 0
I542(1) 0
I543(1) 0
I544(1) 0
I545(1) 0
I546(1) 0
I547(1) 0
I548(1) 0
I549(1) 0
I550(1) 0
I551(1) 0
I552(1) 0
I553(1) 0
I554(1) 0
I555(1) 0
I556(1) 0
I557(1) 0
I558(1) 0
I559(1) 0
I560(1) 0
I561(1) 0
I562(1) 0
I563(1) 0
I564(1) 0
I565(1) 0
I566(1) 0
I567(1) 0
I568(1) 0
I569(1) 0
I570(1) 0
I571(1) 0
I572(1) 0
I573(1) 0
I574(1) 0
I575(1) 0
I576(1) 0
I577(1) 0
I578(1) 0
I579(1) 0
I580(1) 0
I581(1) 0
I582(1) 0
I583(1) 0
I584(1) 0
I585(1) 0
I586(1) 0
I587(1) 0
I588(1) 0
I589(1) 0
I590(1) 0
I591(1) 0
I592(1) 0
I593(1) 0
I594(1) 11
I595(1) 0
I596(1) 0
I597(1) 0
I598(1) 0
I599(1) 0
I600(1) 0
I601(1) 0
I602(1) 0
I603(1) 0
I604(1) 0
I605(1) 0
I606(1) 0
I607(1) 0
I608(1) 0
I609(1) 0
I610(1) 0
I611(1) 0
I612(1) 0
I613(1) 0
I614(1) 0
I615(1) 0
I616(1) 0
I617(1) 0
I618(1) 0
I619(1) 0
I620(1) 0
I621(1) 0
I622(1) 0
I623(1) 0
I624(1) 0
I625(1) 0
I626(1) 0
I627(1) 0
I628(1) 0
I629(1) 0
I630(1) 0
I631(1) 0
I632(1) 0
I633(1) 0
I634(1) 0
I635(1) 0
I636(1) 0
I637(1) 0
I638(1) 0
I639(1) 0
I640(1) 0
I641(1) 0
I642(1) 0
I643(1) 0
I644(1) 0
I645(1) 0
I646(1) 0
I647(1) 0
I648(1) 0
I649(1) 0
I650(1) 0
I651(1) 0
I652(1) 0
I653(1) 0
I654(1) 0
I655(1) 0
I656(1) 0
I657(1) 0
I658(1) 0
I659(1) 57
I660(1) 29
I661(1) 0
I662(1) 15
I663(1) 0
I664(1) 0
I665(1) 20
I666(1) 0
I667(1) 0
I668(1) 0
I669(1) 0
I670(1) 0
I671(1) 0
I672(1) 0
I673(1) 0
I674(1) 0
I675(1) 0
I676(1) 0
I677(1) 0
I678(1) 0
I679(1) 0
I680(1) 0
I681(1) 0
I682(1) 0
I683(1) 0
I684(1) 0
I685(1) 0
I686(1) 0
I687(1) 0
I688(1) 0
I689(1) 0
I690(1) 0
I691(1) 0
I692(1) 0
I693(1) 0
I694(1) 0
I695(1) 0
I696(1) 0
I697(1) 0
I698(1) 0
I699(1) 0
I700(1) 0
I701(1) 0
I702(1) 0
I703(1) 0
I704(1) 0
I705(1) 0
I706(1) 0
I707(1) 0
I708(1) 0
I709(1) 0
I710(1) 0
I711(1) 0
I712(1) 0
I713(1) 0
I714(1) 0
I715(1) 0
I716(1) 0
I717(1) 0
I718(1) 0
I719(1) 0
I720(1) 0
I721(1) 0
I722(1) 0
I723(1) 0
I724(1) 0
I725(1) 0
I726(1) 0
I727(1) 24
I728(1) 115
I729(1) 0
I730(1) 0
I731(1) 25
I732(1) 0
I733(1) 22
I734(1) 0
I735(1) 0
I736(1) 58
I737(1) 0
I738(1) 0
I739(1) 0
I740(1) 0
I741(1) 0
I742(1) 0
I743(1) 0
I744(1) 0
I745(1) 0
I746(1) 0
I747(1) 0
I748(1) 0
I749(1) 0
I750(1) 0
I751(1) 0
I752(1) 0
I753(1) 0
I754(1) 0
I755(1) 0
I756(1) 0
I757(1) 0
I758(1) 0
I759(1) 0
I760(1) 0
I761(1) 0
I762(1) 0
I763(1) 0
I764(1) 0
I765(1) 0
I766(1) 0
I767(1) 0
I768(1) 0
I769(1) 0
I770(1) 0
I771(1) 0
I772(1) 0
I773(1) 0
I774(1) 0
I775(1) 0
I776(1) 0
I777(1) 0
I778(1) 0
I779(1) 0
I780(1) 0
I781(1) 0
I782(1) 0
I783(1) 0
I784(1) 0
I785(1) 0
I786(1) 0
I787(1) 0
I788(1) 0
I789(1) 0
I790(1) 0
I791(1) 0
I792(1) 0
I793(1) 0
I794(1) 0
I795(1) 0
I796(1) 0
I797(1) 0
I798(1) 0
I799(1) 0
I800(1) 0
I801(1) 0
I802(1) 0
I803(1) 0
I804(1) 11
I805(1) 0
I806(1) 0
I807(1) 0
I808(1) 0
I809(1) 0
I810(1) 0
I811(1) 0
I812(1) 0
I813(1) 0
I814(1) 0
I815(1) 0
I816(1) 0
I817(1) 0
I818(1) 0
I819(1) 0
I820(1) 0
I821(1) 0
I822(1) 0
I823(1) 0
I824(1) 0
I825(1) 0
I826(1) 0
I827(1) 0
I828(1) 0
I829(1) 0
I830(1) 0
I831(1) 0
I832(1) 0
I833(1) 0
I834(1) 0
I835(1) 0
I836(1) 0
I837(1) 0
I838(1) 0
I839(1) 0
I840(1) 0
I841(1) 0
I842(1) 0
I843(1) 0
I844(1) 0
I845(1) 0
I846(1) 0
I847(1) 0
I848(1) 0
I849(1) 0
I850(1) 0
I851(1) 0
I852(1) 0
I853(1) 0
I854(1) 0
I855(1) 0
I856(1) 0
I857(1) 0
I858(1) 0
I859(1) 0
I860(1) 0
I861(1) 0
I862(1) 0
I863(1) 0
I864(1) 0
I865(1) 0
I866(1) 0
I867(1) 0
I868(1) 0
I869(1) 57
I870(1) 29
I871(1) 0
I872(1) 15
I873(1) 0
I874(1) 0
I875(1) 20
I876(1) 0
I877(1) 0
I878(1) 0
I879(1) 0
I880(1) 0
I881(1) 0
I882(1) 0
I883(1) 0
I884(1) 0
I885(1) 0
I886(1) 0
I887(1) 0
I888(1) 0
I889(1) 0
I890(1) 0
I891(1) 0
I892(1) 0
I893(1) 0
I894(1) 0
I895(1) 0
I896(1) 0
I897(1) 0
I898(1) 0
I899(1) 0
I900(1) 0
I901(1) 0
I902(1) 0
I903(1) 0
I904(1) 0
I905(1) 0
I906(1) 0
I907(1) 0
I908(1) 0
I909(1) 0
I910(1) 0
I911(1) 0
I912(1) 0
I913(1) 0
I914(1) 0
I915(1) 0
I916(1) 0
I917(1) 0
I918(1) 0
I919(1) 0
I920(1) 0
I921(1) 0
I922(1) 0
I923(1) 0
I924(1) 0
I925(1) 0
I926(1) 0
I927(1) 0
I928(1) 0
I929(1) 0
I930(1) 0
I931(1) 0
I932(1) 0
I933(1) 0
I934(1) 0
I935(1) 0
I936(1) 0
I937(1) 24
I938(1) 115
I939(1) 0
I940(1) 0
I941(1) 25
I942(1) 0
I943(1) 22
I944(1) 0
I945(1) 0
I946(1) 58
B947(7) 0
B948(7) 0
B949(7) 0
B950(7) 0
B951(7) 0
B952(7) 0
B953(7) 0
B954(7) 0
B955(7) 0
B956(7) 0
B957(7) 0
B958(7) 0
B959(7) 0
B960(7) 0
B961(7) 0
B962(7) 0
B963(7) 0
B964(7) 0
B965(7) 0
B966(7) 0
B967(7) 0
B968(7) 0
B969(7) 0
B970(7) 0
B971(7) 0
B972(7) 0
B973(7) 0
B974(7) 0
B975(7) 0
B976(7) 0
B977(9) 0
B978(9) 0
B979(9) 0
B980(9) 0
B981(9) 0
B982(9) 0
B983(9) 0
B984(9) 0
B985(9) 0
B986(9) 0
B987(9) 0
B988(9) 0
B989(9) 0
B990(9) 0
B991(9) 0
B992(9) 0
B993(9) 0
B994(9) 0
B995(9) 0
B996(9) 0
B997(9) 0
B998(9) 0
B999(9) 0
B1000(9) 0
B1001(9) 0
B1002(9) 0
B1003(9) 0
B1004(9) 0
B1005(9) 0
B1006(9) 0
B1007(5) 0
B1008(5) 0
B1009(5) 0
B1010(5) 0
B1011(5) 0
B1012(5) 0
B1013(5) 0
B1014(5) 0
B1015(5) 0
B1016(5) 0
B1017(7) 0
B1018(7) 0
B1019(7) 0
B1020(7) 0
B1021(7) 0
B1022(7) 0
B1023(7) 0
B1024(7) 0
B1025(7) 0
B1026(7) 0
B1027(7) 0
B1028(7) 0
B1029(7) 0
B1030(7) 0
B1031(7) 0
B1032(7) 0
B1033(7) 0
B1034(7) 0
B1035(7) 0
B1036(7) 0
B1037(7) 0
B1038(7) 0
B1039(7) 0
B1040(7) 0
B1041(7) 0
B1042(7) 0
B1043(7) 0
B1044(7) 0
B1045(7) 0
B1046(7) 0
B1047(9) 0
B1048(9) 0
B1049(9) 0
B1050(9) 0
B1051(9) 0
B1052(9) 0
B1053(9) 0
B1054(9) 0
B1055(9) 0
B1056(9) 0
B1057(9) 0
B1058(9) 0
B1059(9) 0
B1060(9) 0
B1061(9) 0
B1062(9) 0
B1063(9) 0
B1064(9) 0
B1065(9) 0
B1066(9) 0
B1067(9) 0
B1068(9) 0
B1069(9) 0
B1070(9) 0
B1071(9) 0
B1072(9) 0
B1073(9) 0
B1074(9) 0
B1075(9) 0
B1076(9) 0
B1077(5) 0
B1078(5) 0
B1079(5) 0
B1080(5) 0
B1081(5) 0
B1082(5) 0
B1083(5) 0
B1084(5) 0
B1085(5) 0
B1086(5) 0
B1087(7) 0
B1088(7) 0
B1089(7) 0
B1090(7) 0
B1091(7) 0
B1092(7) 0
B1093(7) 0
B1094(7) 0
B1095(7) 0
B1096(7) 0
B1097(7) 0
B1098(7) 0
B1099(7) 0
B1100(7) 0
B1101(7) 0
B1102(7) 0
B1103(7) 0
B1104(7) 0
B1105(7) 0
B1106(7) 0
B1107(7) 0
B1108(7) 0
B1109(7) 0
B1110(7) 0
B1111(7) 0
B1112(7) 0
B1113(7) 0
B1114(7) 0
B1115(7) 0
B1116(7) 0
B1117(9) 0
B1118(9) 0
B1119(9) 0
B1120(9) 0
B1121(9) 0
B1122(9) 0
B1123(9) 0
B1124(9) 0
B1125(9) 0
B1126(9) 0
B1127(9) 0
B1128(9) 0
B1129(9) 0
B1130(9) 0
B1131(9) 0
B1132(9) 0
B1133(9) 0
B1134(9) 0
B1135(9) 0
B1136(9) 0
B1137(9) 0
B1138(9) 0
B1139(9) 0
B1140(9) 0
B1141(9) 0
B1142(9) 0
B1143(9) 0
B1144(9) 0
B1145(9) 0
B1146(9) 0
B1147(5) 0
B1148(5) 0
B1149(5) 0
B1150(5) 0
B1151(5) 0
B1152(5) 0
B1153(5) 0
B1154(5) 0
B1155(5) 0
B1156(5) 0
B1157(7) 0
B1158(7) 0
B1159(7) 0
B1160(7) 0
B1161(7) 0
B1162(7) 0
B1163(7) 0
B1164(7) 0
B1165(7) 0
B1166(7) 0
B1167(7) 0
B1168(7) 0
B1169(7) 0
B1170(7) 0
B1171(7) 0
B1172(7) 0
B1173(7) 0
B1174(7) 0
B1175(7) 0
B1176(7) 0
B1177(7) 0
B1178(7) 0
B1179(7) 0
B1180(7) 0
B1181(7) 0
B1182(7) 0
B1183(7) 0
B1184(7) 0
B1185(7) 0
B1186(7) 0
B1187(9) 0
B1188(9) 0
B1189(9) 0
B1190(9) 0
B1191(9) 0
B1192(9) 0
B1193(9) 0
B1194(9) 0
B1195(9) 0
B1196(9) 0
B1197(9) 0
B1198(9) 0
B1199(9) 0
B1200(9) 0
B1201(9) 0
B1202(9) 0
B1203(9) 0
B1204(9) 0
B1205(9) 0
B1206(9) 0
B1207(9) 0
B1208(9) 0
B1209(9) 0
B1210(9) 0
B1211(9) 0
B1212(9) 0
B1213(9) 0
B1214(9) 0
B1215(9) 0
B1216(9) 0
B1217(5) 0
B1218(5) 0
B1219(5) 0
B1220(5) 0
B1221(5) 0
B1222(5) 0
B1223(5) 0
B1224(5) 0
B1225(5) 0
B1226(5) 0
B1227(7) 0
B1228(7) 0
B1229(7) 0
B1230(7) 0
B1231(7) 0
B1232(7) 0
B1233(7) 0
B1234(7) 0
B1235(7) 0
B1236(7) 0
B1237(7) 0
B1238(7) 0
B1239(7) 0
B1240(7) 0
B1241(7) 0
B1242(7) 0
B1243(7) 0
B1244(7) 0
B1245(7) 0
B1246(7) 0
B1247(7) 0
B1248(7) 0
B1249(7) 0
B1250(7) 0
B1251(7) 0
B1252(7) 0
B1253(7) 0
B1254(7) 0
B1255(7) 0
B1256(7) 0
B1257(9) 0
B1258(9) 0
B1259(9) 0
B1260(9) 0
B1261(9) 0
B1262(9) 0
B1263(9) 0
B1264(9) 0
B1265(9) 0
B1266(9) 0
B1267(9) 0
B1268(9) 0
B1269(9) 0
B1270(9) 0
B1271(9) 0
B1272(9) 0
B1273(9) 0
B1274(9) 0
B1275(9) 0
B1276(9) 0
B1277(9) 0
B1278(9) 0
B1279(9) 0
B1280(9) 0
B1281(9) 0
B1282(9) 0
B1283(9) 0
B1284(9) 0
B1285(9) 0
B1286(9) 0
B1287(5) 0
B1288(5) 0
B1289(5) 0
B1290(5) 0
B1291(5) 0
B1292(5) 0
B1293(5) 0
B1294(5) 0
B1295(5) 0
B1296(5) 0
B1297(7) 0
B1298(7) 0
B1299(7) 0
B1300(7) 0
B1301(7) 0
B1302(7) 0
B1303(7) 0
B1304(7) 0
B1305(7) 0
B1306(7) 0
B1307(7) 0
B1308(7) 0
B1309(7) 0
B1310(7) 0
B1311(7) 0
B1312(7) 0
B1313(7) 0
B1314(7) 0
B1315(7) 0
B1316(7) 0
B1317(7) 0
B1318(7) 0
B1319(7) 0
B1320(7) 0
B1321(7) 0
B1322(7) 0
B1323(7) 0
B1324(7) 0
B1325(7) 0
B1326(7) 0
B1327(9) 0
B1328(9) 0
B1329(9) 0
B1330(9) 0
B1331(9) 0
B1332(9) 0
B1333(9) 0
B1334(9) 0
B1335(9) 0
B1336(9) 0
B1337(9) 0
B1338(9) 0
B1339(9) 0
B1340(9) 0
B1341(9) 0
B1342(9) 0
B1343(9) 0
B1344(9) 0
B1345(9) 0
B1346(9) 0
B1347(9) 0
B1348(9) 0
B1349(9) 0
B1350(9) 0
B1351(9) 0
B1352(9) 0
B1353(9) 0
B1354(9) 0
B1355(9) 0
B1356(9) 0
B1357(5) 0
B1358(5) 0
B1359(5) 0
B1360(5) 0
B1361(5) 0
B1362(5) 0
B1363(5) 0
B1364(5) 0
B1365(5) 0
B1366(5) 0
C1367(4) 0
C1368(4) 0
C1369(4) 0
C1370(4) 0
C1371(4) 0
C1372(4) 0
C1373(4) 0
C1374(4) 0
C1375(4) 0
C1376(4) 0
C1377(4) 0
C1378(4) 0
C1379(4) 0
C1380(4) 0
C1381(4) 0
C1382(4) 0
C1383(4) 0
C1384(4) 0
C1385(4) 0
C1386(4) 0
C1387(4) 0
C1388(4) 0
C1389(4) 0
C1390(4) 0
C1391(4) 0
C1392(4) 0
C1393(4) 0
C1394(4) 0
C1395(4) 0
C1396(4) 0
C1397(4) 0
C1398(4) 0
C1399(4) 0
C1400(4) 0
C1401(4) 0
C1402(4) 0
C1403(4) 0
C1404(4) 8.8817841970012523e-16
C1405(4) 0
C1406(4) 0
C1407(4) 0
C1408(4) 0
C1409(4) 0
C1410(4) 0
C1411(4) 0
C1412(4) 0
C1413(4) 0
C1414(4) 0
C1415(4) 0
C1416(4) 0
C1417(4) 0
C1418(4) 0
C1419(4) 0
C1420(4) 0
C1421(4) 0
C1422(4) 0
C1423(4) 0
C1424(4) 0
C1425(4) 0
C1426(4) 0
C1427(4) 0
C1428(4) 0
C1429(4) 0
C1430(4) 0
C1431(4) 0
C1432(4) 0
C1433(4) 0
C1434(4) 0
C1435(4) 0
C1436(4) 0
C1437(4) 0
C1438(4) 0
C1439(4) 0
C1440(4) 0
C1441(4) 0
C1442(4) 0
C1443(4) 0
C1444(4) 0
C1445(4) 0
C1446(4) 0
C1447(4) 0
C1448(4) 0
C1449(4) 0
C1450(4) 0
C1451(4) 0
C1452(4) 0
C1453(4) 0
C1454(4) 0
C1455(4) 0
C1456(4) 0
C1457(4) 0
C1458(4) 0
C1459(4) 0
C1460(4) 0
C1461(4) 0
C1462(4) 0
C1463(4) 0
C1464(4) 0
C1465(4) 0
C1466(4) 0
C1467(4) 0
C1468(4) 0
C1469(4) 0
C1470(4) 0
C1471(4) 0
C1472(4) 0
C1473(4) 0
C1474(4) 0
C1475(4) 0
C1476(4) 0
C1477(4) 0
C1478(4) 0
C1479(4) 0
C1480(4) 0
C1481(4) 0
C1482(4) 0
C1483(4) 0
C1484(4) 0
C1485(4) 0
C1486(4) 0
C1487(4) 0
C1488(4) 0
C1489(4) 0
C1490(4) 0
C1491(4) 0
C1492(4) 0
C1493(4) 0
C1494(4) 0
C1495(4) 0
C1496(4) 0
C1497(4) 0
C1498(4) 0
C1499(4) 0
C1500(4) 0
C1501(4) 0
C1502(4) 0
C1503(4) 0
C1504(4) 0
C1505(4) 0
C1506(4) 0
C1507(4) 0
C1508(4) 0
C1509(4) 0
C1510(4) 0
C1511(4) 0
C1512(4) 0
C1513(4) 0
C1514(4) 0
C1515(4) 0
C1516(4) 0
C1517(4) 0
C1518(4) 0
C1519(4) 0
C1520(4) 0
C1521(4) 0
C1522(4) 0
C1523(4) 0
C1524(4) 0
C1525(4) 0
C1526(4) 0
C1527(4) 0
C1528(4) 0
C1529(4) 0
C1530(4) 0
C1531(4) 0
C1532(4) 0
C1533(4) 8.8817841970012523e-16
C1534(4) 0
C1535(4) 0
C1536(4) 0
C1537(4) 0
C1538(4) 0
C1539(4) 0
C1540(4) 0
C1541(4) 0
C1542(4) 0
C1543(4) 0
C1544(4) 0
C1545(4) 0
C1546(4) 0
C1547(4) 0
C1548(4) 0
C1549(4) 0
C1550(4) 0
C1551(4) 0
C1552(4) 0
C1553(4) 1.7763568394002505e-15
C1554(4) 0
C1555(4) 0
C1556(4) 0
C1557(4) 0
C1558(4) 0
C1559(4) 0
C1560(4) 0
C1561(4) 0
C1562(4) 0
C1563(4) 0
C1564(4) 0
C1565(4) 0
C1566(4) 0
C1567(4) 0
C1568(4) 0
C1569(4) 0
C1570(4) 0
C1571(4) 0
C1572(4) 0
C1573(4) 0
C1574(4) 0
C1575(4) 0
C1576(4) 0
C1577(4) 0
C1578(4) 0
C1579(4) 0
C1580(4) 0
C1581(4) 0
C1582(4) 0
C1583(4) 0
C1584(4) 0
C1585(4) 0
C1586(4) 0
C1587(4) 0
C1588(4) 0
C1589(4) 0
C1590(4) 0
C1591(4) 0
C1592(4) 0
C1593(4) 0
C1594(4) 0
C1595(4) 0
C1596(4) 0
C1597(4) 0
C1598(4) 0
C1599(4) 0
C1600(4) 0
C1601(4) 0
C1602(4) 0
C1603(4) 0
C1604(4) 0
C1605(4) 0
C1606(4) 0
C1607(4) 0
C1608(4) 0
C1609(4) 0
C1610(4) 0
C1611(4) 0
C1612(4) 0
C1613(4) 0
C1614(4) 0
C1615(4) 0
C1616(4) 0
C1617(4) 0
C1618(4) 0
C1619(4) 0
C1620(4) 0
C1621(4) 0
C1622(4) 0
C1623(4) 0
C1624(4) 0
C1625(4) 0
C1626(4) 0
C1627(4) 0
C1628(4) 0
C1629(4) 0
C1630(4) 0
C1631(4) 0
C1632(4) 0
C1633(4) 0
C1634(4) 0
C1635(4) 0
C1636(4) 0
C1637(4) 0
C1638(4) 0
C1639(4) 0
C1640(4) 0
C1641(4) 0
C1642(4) 0
C1643(4) 0
C1644(4) 0
C1645(4) 0
C1646(4) 0
C1647(4) 0
C1648(4) 0
C1649(4) 0
C1650(4) 0
C1651(4) 0
C1652(4) 1.1102230246251565e-16
C1653(4) 0
C1654(4) 0
C1655(4) 0
C1656(4) 0
C1657(4) 0
C1658(4) 0
C1659(4) 0
C1660(4) 0
C1661(4) 0
C1662(4) 0
C1663(4) 0
C1664(4) 0
C1665(4) 1.1102230246251565e-16
C1666(4) 0
C1667(4) 0
C1668(4) 0
C1669(4) 0
C1670(4) 0
C1671(4) 0
C1672(4) 0
C1673(4) 0
C1674(4) 0
C1675(4) 0
C1676(4) 0
C1677(4) 0
C1678(4) 0
C1679(4) 5.5511151231257827e-16
C1680(4) 0
C1681(4) 0
C1682(4) 0
C1683(4) 0
C1684(4) 0
C1685(4) 0
C1686(4) 0
C1687(4) 0
C1688(4) 0
C1689(4) 0
C1690(4) 0
C1691(4) 0
C1692(4) 0
C1693(4) 0
C1694(4) 0
C1695(4) 0
C1696(4) 0
C1697(4) 0
C1698(4) 0
C1699(4) 0
C1700(4) 0
C1701(4) 0
C1702(4) 0
C1703(4) 0
C1704(4) 0
C1705(4) 0
C1706(4) 0
C1707(4) 0
C1708(4) 0
C1709(4) 0
C1710(4) 0
C1711(4) 0
C1712(4) 0
C1713(4) 0
C1714(4) 0
C1715(4) 0
C1716(4) 0
C1717(4) 0
C1718(4) 0
C1719(4) 0
C1720(4) 0
C1721(4) 0
C1722(4) 0
C1723(4) 0
C1724(4) 0
C1725(4) 0
C1726(4) 0
C1727(4) 0
C1728(4) 0
C1729(4) 0
C1730(4) 0
C1731(4) 0
C1732(4) 0
C1733(4) 0
C1734(4) 0
C1735(4) 0
C1736(4) 0
C1737(4) 0
C1738(4) 0
C1739(4) 0
C1740(4) 0
C1741(4) 0
C1742(4) 0
C1743(4) 0
C1744(4) 0
C1745(4) 0
C1746(4) 0
C1747(4) 0
C1748(4) 0
C1749(4) 0
C1750(4) 0
C1751(4) 0
C1752(4) 0
C1753(4) 0
C1754(4) 0
C1755(4) 0
C1756(4) 0
C1757(4) 0
C1758(4) 0
C1759(4) 0
C1760(4) 0
C1761(4) 0
C1762(4) 0
C1763(4) 0
C1764(4) 0
C1765(4) 0
C1766(4) 1.1102230246251565e-16
C1767(4) 0
C1768(4) 0
C1769(4) 0
C1770(4) 0
C1771(4) 0
C1772(4) 0
C1773(4) 0
C1774(4) 0
C1775(4) 0
C1776(4) 0
C1777(4) 0
C1778(4) 0
C1779(4) 0
C1780(4) 0
C1781(4) 0
C1782(4) 0
C1783(4) 0
C1784(4) 0
C1785(4) 0
C1786(4) 0
C1787(2) 0
C1788(2) 0
C1789(2) 0
C1790(2) 0
C1791(2) 0
C1792(2) 6.6613381477509392e-16
C1793(1) 0
C1794(1) 0
C1795(1) 0
C1796(2) 0
C1797(2) 0
C1798(2) 0
C1799(2) 1
C1800(2) 1
C1801(2) 0
C1802(1) 2e+09
C1803(1) 2e+09
C1804(1) 2e+09
C1805(2) 1
C1806(2) 0
C1807(2) 0
C1808(2) 2
C1809(2) 1
C1810(2) 0
C1811(1) 2e+09
C1812(1) 2e+09
C1813(1) 2e+09
C1814(3) 0
C1815(3) 0
C1816(3) 0
C1817(3) 0
C1818(3) 0
C1819(3) 0
C1820(3) 0
C1821(3) 0
C1822(3) 0
